NAME : eil76.out.tour
COMMENT : Tour for eil76.tsp (651)
TYPE: TOUR
DIMENSION: 76
TOUR_SELECTION
18
50
3
44
16
49
24
23
56
63
33
62
22
73
1
43
41
42
64
28
69
61
21
47
48
36
71
60
70
20
37
5
29
74
30
45
27
15
57
59
14
53
7
35
52
13
54
19
8
46
34
67
26
76
75
4
68
2
6
51
17
40
12
66
11
65
38
31
10
58
72
39
9
32
25
55
-1
EOF
